%Mem=32GB
%NProcShared=16
%chk=MOLECULE_NAME_CONFORMER_NUMBER.chk
#P CAM-B3LYP/BASIS_SET Int=UltraFine SCRF=(PCM, Solvent=Water, read) SCF(MaxCycle=512) Freq=SPECTROSCOPY CPHF=RdFreq

#MOLECULE_NAME_CONFORMER_NUMBER

0   1
